INCAR created by Atomic Simulation Environment
 ENCUT = 520.000000
 SIGMA = 0.050000
 EDIFF = 5.00e-05
 EDIFFG = -2.00e-02
 SYMPREC = 1.00e-08
 ALGO = normal
 GGA = PE
 PREC = accurate
 IBRION = 2
 ISIF = 3
 ISMEAR = -5
 ISPIN = 2
 ISTART = 1
 LORBIT = 11
 NGX = 50
 NGY = 50
 NGZ = 50
 NELMIN = 8
 NSW = 0
 NCORE = 4
 LAECHG = .TRUE.
 LCHARG = .TRUE.
 LVHAR = .TRUE.
 LVTOT = .TRUE.
 LWAVE = .TRUE.
