Li Se  F 
 1.0000000000000000
     3.9955738309454092   -0.0002212729128416    0.0004320587901478
    -0.0002206671992454    3.9941308227053334   -0.0002491737556995
     0.0004316439311432   -0.0002475860947193    3.9975024809197621
 Li  Se  F  
   3   1   1
Cartesian
  1.9769216858927139  2.0025161763682613  3.9871260943667699
  1.9778474665409593  0.0072262065350652  1.9892123884233373
  3.9768131145899077  2.0146281859603139  1.9807036859893685
  3.9805009572332199  0.0072658182662108  3.9916962988801785
  1.9806962131896066  2.0048707531903700  1.9909408233009727
