Li Se  F                                
   1.00000000000000     
     3.9955738309454092   -0.0002212729128416    0.0004320587901478
    -0.0002206671992454    3.9941308227053334   -0.0002491737556995
     0.0004316439311432   -0.0002475860947193    3.9975024809197621
   Li   Se   F 
     3     1     1
Direct
  0.4946978606925185  0.5014539248817798  0.9973820714297617
  0.4949559671201413  0.0018674691078999  0.4975604175769419
  0.9952789675114104  0.5044829926958911  0.4954091661824620
  0.9961198521960810  0.0019361990912401  0.9984400054890443
  0.4956965146182384  0.5020125354417644  0.4980238914461879
 
  0.00000000E+00  0.00000000E+00  0.00000000E+00
  0.00000000E+00  0.00000000E+00  0.00000000E+00
  0.00000000E+00  0.00000000E+00  0.00000000E+00
  0.00000000E+00  0.00000000E+00  0.00000000E+00
  0.00000000E+00  0.00000000E+00  0.00000000E+00
